WARNING: for repeatability, setting FPU to use double precision
============================[ Problem Statistics ]=============================
|                                                                             |
|  Number of variables:            50                                         |
|  Number of clauses:             218                                         |
|  Parse time:                   0.00 s                                       |
|                                                                             |
============================[ Search Statistics ]==============================
| Conflicts |          ORIGINAL         |          LEARNT          | Progress |
|           |    Vars  Clauses Literals |    Limit  Clauses Lit/Cl |          |
===============================================================================
===============================================================================
restarts              : 1
conflicts             : 4              (2943 /sec)
decisions             : 19             (0.00 % random) (13981 /sec)
propagations          : 90             (66225 /sec)
conflict literals     : 19             (0.00 % deleted)
Memory used           : 20.00 MB
CPU time              : 0.001359 s

SATISFIABLE
